NAME : random1
TYPE : HCP
COMMENT : 
DIMENSION : 360
EDGE_DATA_FORMAT : EDGE_LIST
EDGE_DATA_SECTION
1 2
1 3
1 7
1 11
1 13
2 4
2 6
2 8
2 9
2 14
3 5
3 6
3 7
3 9
3 15
4 6
4 7
4 9
4 10
4 16
5 6
5 9
5 11
5 17
6 12
6 18
7 19
8 20
9 21
10 22
11 23
12 24
13 25
14 15
14 18
14 26
15 17
15 23
15 27
16 28
17 19
17 29
18 19
18 30
19 31
20 32
21 23
21 33
22 34
23 35
24 36
25 26
25 32
25 35
25 37
26 30
26 31
26 34
26 38
27 29
27 31
27 39
28 40
29 31
29 34
29 41
30 42
31 43
32 44
33 35
33 45
34 46
35 47
36 48
37 49
38 40
38 50
39 51
40 41
40 45
40 52
41 43
41 53
42 54
43 45
43 55
44 56
45 46
45 57
46 58
47 59
48 60
49 53
49 57
49 58
49 59
49 61
50 52
50 53
50 54
50 55
50 62
51 57
51 63
52 55
52 64
53 55
53 65
54 57
54 66
55 67
56 58
56 68
57 69
58 70
59 71
60 72
61 66
61 71
61 73
62 68
62 71
62 74
63 75
64 76
65 66
65 67
65 77
66 71
66 78
67 69
67 79
68 69
68 80
69 81
70 82
71 83
72 84
73 80
73 83
73 85
74 77
74 80
74 81
74 86
75 79
75 80
75 87
76 78
76 88
77 79
77 80
77 82
77 89
78 80
78 81
78 90
79 80
79 91
80 92
81 93
82 94
83 95
84 96
85 89
85 93
85 95
85 97
86 98
87 93
87 99
88 94
88 100
89 101
90 102
91 94
91 103
92 104
93 105
94 106
95 107
96 108
97 109
98 104
98 106
98 110
99 111
100 104
100 106
100 107
100 112
101 104
101 105
101 113
102 114
103 115
104 105
104 116
105 106
105 117
106 118
107 119
108 120
109 112
109 119
109 121
110 111
110 122
111 116
111 123
112 119
112 124
113 119
113 125
114 119
114 126
115 127
116 119
116 128
117 129
118 130
119 131
120 132
121 122
121 129
121 130
121 133
122 125
122 128
122 130
122 134
123 124
123 135
124 136
125 137
126 130
126 131
126 138
127 139
128 140
129 141
130 142
131 143
132 144
133 135
133 137
133 138
133 140
133 145
134 137
134 142
134 146
135 143
135 147
136 148
137 149
138 140
138 142
138 150
139 151
140 141
140 152
141 143
141 153
142 154
143 155
144 156
145 148
145 150
145 153
145 157
146 150
146 151
146 158
147 152
147 159
148 152
148 154
148 155
148 160
149 161
150 162
151 163
152 154
152 164
153 165
154 166
155 167
156 168
157 164
157 169
158 159
158 165
158 170
159 160
159 162
159 164
159 171
160 163
160 172
161 162
161 166
161 173
162 166
162 174
163 175
164 176
165 177
166 178
167 179
168 180
169 172
169 181
170 171
170 182
171 175
171 178
171 183
172 173
172 184
173 185
174 186
175 176
175 187
176 188
177 189
178 179
178 190
179 191
180 192
181 184
181 185
181 193
182 194
183 185
183 189
183 195
184 190
184 191
184 196
185 190
185 197
186 187
186 198
187 189
187 199
188 191
188 200
189 201
190 191
190 202
191 203
192 204
193 199
193 205
194 195
194 196
194 202
194 206
195 207
196 198
196 200
196 208
197 199
197 209
198 200
198 210
199 211
200 212
201 213
202 214
203 215
204 216
205 210
205 217
206 214
206 218
207 219
208 211
208 214
208 220
209 210
209 221
210 211
210 215
210 222
211 223
212 215
212 224
213 214
213 225
214 215
214 226
215 227
216 228
217 218
217 227
217 229
218 230
219 222
219 223
219 224
219 231
220 222
220 223
220 226
220 232
221 226
221 233
222 223
222 234
223 235
224 226
224 227
224 236
225 237
226 238
227 239
228 240
229 235
229 241
230 238
230 239
230 242
231 236
231 238
231 243
232 233
232 236
232 237
232 238
232 244
233 245
234 246
235 247
236 239
236 248
237 249
238 239
238 250
239 251
240 252
241 247
241 249
241 253
242 243
242 250
242 254
243 244
243 255
244 246
244 256
245 248
245 257
246 249
246 258
247 249
247 259
248 260
249 251
249 261
250 262
251 263
252 264
253 265
254 256
254 260
254 266
255 263
255 267
256 260
256 263
256 268
257 260
257 269
258 270
259 271
260 272
261 273
262 263
262 274
263 275
264 276
265 277
266 273
266 278
267 270
267 274
267 279
268 280
269 273
269 274
269 281
270 282
271 272
271 283
272 275
272 284
273 275
273 285
274 286
275 287
276 288
277 281
277 282
277 285
277 289
278 280
278 283
278 287
278 290
279 282
279 284
279 291
280 281
280 285
280 292
281 293
282 285
282 287
282 294
283 284
283 285
283 287
283 295
284 296
285 297
286 287
286 298
287 299
288 300
289 290
289 293
289 295
289 297
289 298
289 301
290 302
291 292
291 293
291 294
291 298
291 303
292 295
292 296
292 297
292 304
293 297
293 298
293 305
294 306
295 296
295 298
295 307
296 297
296 299
296 308
297 309
298 310
299 311
300 312
301 311
301 313
302 314
303 307
303 310
303 315
304 305
304 310
304 316
305 307
305 309
305 317
306 318
307 310
307 311
307 319
308 309
308 320
309 310
309 321
310 322
311 323
312 324
313 314
313 325
314 318
314 319
314 322
314 326
315 318
315 327
316 328
317 319
317 322
317 329
318 320
318 322
318 323
318 330
319 320
319 323
319 331
320 332
321 333
322 334
323 335
324 336
325 331
325 335
325 337
326 327
326 331
326 338
327 329
327 339
328 340
329 341
330 342
331 332
331 334
331 343
332 344
333 345
334 346
335 347
336 348
337 345
337 349
338 339
338 350
339 340
339 343
339 351
340 341
340 352
341 342
341 343
341 344
341 353
342 346
342 354
343 344
343 355
344 356
345 357
346 358
347 359
348 360
349 350
351 352
353 354
355 356
357 358
359 360
-1
EOF
